
Gurobi 11.0.0 (linux64) logging started Tue Mar 19 18:49:48 2024

Set parameter LogFile to value "gurobi_out/log/Mar_19_fir_7_6.log"
Gurobi Optimizer version 11.0.0 build v11.0.0rc2 (linux64 - "CentOS Linux 7 (Core)")

CPU model: Intel Xeon E3-12xx v2 (Ivy Bridge), instruction set [SSE2|AVX]
Thread count: 24 physical cores, 24 logical processors, using up to 24 threads

Optimize a model with 404 rows, 354 columns and 981 nonzeros
Model fingerprint: 0xff2f5c01
Variable types: 254 continuous, 100 integer (50 binary)
Coefficient statistics:
  Matrix range     [1e+00, 1e+02]
  Objective range  [1e-05, 1e+00]
  Bounds range     [1e+00, 1e+00]
  RHS range        [1e+00, 6e+00]
Found heuristic solution: objective -0.0001000
Presolve removed 245 rows and 201 columns
Presolve time: 0.01s
Presolved: 159 rows, 153 columns, 471 nonzeros
Variable types: 89 continuous, 64 integer (28 binary)
Found heuristic solution: objective -0.0000800

Root relaxation: objective 9.998339e-01, 97 iterations, 0.00 seconds (0.00 work units)

    Nodes    |    Current Node    |     Objective Bounds      |     Work
 Expl Unexpl |  Obj  Depth IntInf | Incumbent    BestBd   Gap | It/Node Time

     0     0    0.99983    0    9   -0.00008    0.99983      -     -    0s
H    0     0                       0.4998300    0.99983   100%     -    0s
     0     0    0.99982    0   11    0.49983    0.99982   100%     -    0s
H    0     0                       0.4998700    0.99981   100%     -    0s
H    0     0                       0.9997700    0.99981  0.00%     -    0s

Cutting planes:
  Gomory: 6
  Cover: 2
  Implied bound: 2
  MIR: 10

Explored 1 nodes (124 simplex iterations) in 0.04 seconds (0.00 work units)
Thread count was 24 (of 24 available processors)

Solution count 5: 0.99977 0.49987 0.49983 ... -0.0001

Optimal solution found (tolerance 1.00e-04)
Best objective 9.997700000000e-01, best bound 9.998142350000e-01, gap 0.0044%
Warning: linear constraint 103 and linear constraint 104 have the same name "PathConstr3_nopl"

Gurobi 11.0.0 (linux64) logging started Tue Mar 19 18:54:58 2024

Set parameter LogFile to value "gurobi_out/log/Mar_19_fir_7_6.log"
Gurobi Optimizer version 11.0.0 build v11.0.0rc2 (linux64 - "CentOS Linux 7 (Core)")

CPU model: Intel Xeon E3-12xx v2 (Ivy Bridge), instruction set [SSE2|AVX]
Thread count: 24 physical cores, 24 logical processors, using up to 24 threads

Optimize a model with 404 rows, 354 columns and 981 nonzeros
Model fingerprint: 0xff2f5c01
Variable types: 254 continuous, 100 integer (50 binary)
Coefficient statistics:
  Matrix range     [1e+00, 1e+02]
  Objective range  [1e-05, 1e+00]
  Bounds range     [1e+00, 1e+00]
  RHS range        [1e+00, 6e+00]
Found heuristic solution: objective -0.0001000
Presolve removed 245 rows and 201 columns
Presolve time: 0.00s
Presolved: 159 rows, 153 columns, 471 nonzeros
Variable types: 89 continuous, 64 integer (28 binary)
Found heuristic solution: objective -0.0000800

Root relaxation: objective 9.998339e-01, 97 iterations, 0.00 seconds (0.00 work units)

    Nodes    |    Current Node    |     Objective Bounds      |     Work
 Expl Unexpl |  Obj  Depth IntInf | Incumbent    BestBd   Gap | It/Node Time

     0     0    0.99983    0    9   -0.00008    0.99983      -     -    0s
H    0     0                       0.4998300    0.99983   100%     -    0s
     0     0    0.99982    0   11    0.49983    0.99982   100%     -    0s
H    0     0                       0.4998700    0.99981   100%     -    0s
H    0     0                       0.9997700    0.99981  0.00%     -    0s

Cutting planes:
  Gomory: 6
  Cover: 2
  Implied bound: 2
  MIR: 10

Explored 1 nodes (124 simplex iterations) in 0.04 seconds (0.00 work units)
Thread count was 24 (of 24 available processors)

Solution count 5: 0.99977 0.49987 0.49983 ... -0.0001

Optimal solution found (tolerance 1.00e-04)
Best objective 9.997700000000e-01, best bound 9.998142350000e-01, gap 0.0044%
Warning: linear constraint 103 and linear constraint 104 have the same name "PathConstr3_nopl"
